NAME : tsp_213_sol.txt
COMMENT : OR-Tools Guided Local Search
TYPE : TOUR
DIMENSION : 50
COST : 5858
STATUS : ROUTING_SUCCESS
GAP : 0.00% (Reference Solution)
TOUR_SECTION
1
40
42
15
18
48
3
44
12
28
38
39
23
49
22
11
26
9
29
34
35
37
4
14
47
41
45
10
13
6
16
30
24
27
25
8
36
31
20
17
2
32
5
46
19
7
43
50
21
33
-1
